(set-logic QF_S)
(declare-fun var0 () String)
(declare-fun var1 () Int)
(declare-fun var2 () Int)
(declare-fun var3 () String)
(declare-fun var4 () Int)
(declare-fun var5 () String)
(declare-fun var6 () String)
(declare-fun var7 () Int)
(assert (str.contains (str.substr var0 var1 var2) (str.at var3 var4)))
(assert (str.prefixof var5 var6))
(assert (str.suffixof (str.substr (str.substr var6 var7 var2) (str.len var3) (str.to.int var0)) (str.replace (str.substr var5 var4 var4) (str.substr "8>!" var1 var1) (str.substr var0 var7 var2))))
(assert (>= var2 var4))
(check-sat)